(set-info :smt-lib-version 2.6)
(set-logic QF_SLIA)
(set-info :source |
Generated by: Joel Day, Thorsten Ehlers, Mitja Kulczynski, Federico Mora, Florin Manea, Dirk Nowotka, Danny Poulsen, Zhengyang Lu
Application: Test WOORPJE
Target solver: WOORPJE
Publications: Day, J. D., Ehlers, T., Kulczynski, M., Manea, F., Nowotka, D., & Poulsen, D. B. (2019). On solving word equations using SAT. In RP 2019
Description: Enriches a system of 30 word equations by suitable linear constraints
|)
(set-info :license "https://creativecommons.org/licenses/by/4.0/")
(set-info :category "random")
(set-info :status unknown)

(declare-fun I () String)
(declare-fun H () String)
(declare-fun G () String)
(declare-fun D () String)
(assert (= (str.++  "abacd" I "cbaacddddcdeda")  (str.++  "aba" D "aaa" H "edcbaacddddcdeda") ))
(assert (= (str.++  "a" G "df" G "dfdcefedcfdcbddffbb" G "dcbfceacceafcde")  (str.++  "a" G "d" G "fd" G "dcefedcfdcbddf" G "bb" G "dcbfceaccea" G "cde") ))
(assert (= (str.++  "eacacdcfd" G "cbbacfeebeebcacadbfaad" G "cdcfdbd")  (str.++  "eacacdc" G "d" G "cbbac" G "eebeebcacadb" G "aadfcdcfdbd") ))
(assert (<=(* (str.len D) 2) 26))
(assert (>=(* (str.len I) 15) 120))
(assert (<=(* (str.len I) 10) 1860))
(assert (>=(* (str.len G) 17) 17))
(assert (<=(* (str.len G) 9) 9))
(check-sat)

(exit)
